A8 B8
1.0
5.616038 0.000000 0.000000
0.000000 5.616038 0.000000
0.000000 0.000000 5.616038
A B
8 8
direct
0.250000 0.750000 0.750000 A
0.250000 0.250000 0.750000 A
0.500000 0.000000 0.000000 A
0.250000 0.250000 0.250000 A
0.250000 0.750000 0.250000 A
0.500000 0.500000 0.500000 A
0.750000 0.750000 0.250000 A
0.750000 0.250000 0.250000 A
0.000000 0.000000 0.500000 B
0.750000 0.250000 0.750000 B
0.750000 0.750000 0.750000 B
0.000000 0.500000 0.000000 B
0.000000 0.000000 0.000000 B
0.000000 0.500000 0.500000 B
0.500000 0.000000 0.500000 B
0.500000 0.500000 0.000000 B
