Fe12 Cu4
1.0
5.616038 0.000000 0.000000
0.000000 5.616038 0.000000
0.000000 0.000000 5.616038
Fe Cu
12 4
direct
0.250000 0.750000 0.750000 Fe
0.250000 0.250000 0.750000 Fe
0.500000 0.000000 0.000000 Fe
0.250000 0.250000 0.250000 Fe
0.250000 0.750000 0.250000 Fe
0.500000 0.500000 0.500000 Fe
0.750000 0.750000 0.250000 Fe
0.750000 0.250000 0.250000 Fe
0.000000 0.000000 0.500000 Fe
0.750000 0.250000 0.750000 Fe
0.750000 0.750000 0.750000 Fe
0.000000 0.500000 0.000000 Fe
0.000000 0.000000 0.000000 Cu
0.000000 0.500000 0.500000 Cu
0.500000 0.000000 0.500000 Cu
0.500000 0.500000 0.000000 Cu
