A8 B8
1.0
5.616038 0.000000 0.000000
0.000000 5.616038 0.000000
0.000000 0.000000 5.616038
A B
8 8
direct
0.0 0.0 0.0 A
0.25 0.25 0.0 A
0.25 0.0 0.25 A
0.0 0.25 0.25 A
0.0 0.5 0.0 A
0.25 0.75 0.0 A
0.25 0.5 0.25 A
0.0 0.75 0.25 A
0.5 0.0 0.0 B
0.75 0.25 0.0 B
0.75 0.0 0.25 B
0.5 0.25 0.25 B
0.5 0.5 0.0 B
0.75 0.75 0.0 B
0.75 0.5 0.25 B
0.5 0.75 0.25 B
