Co14 Cr12 Fe12 Mn10 Ni10
1.0
8.618498 0.000000 0.000000
0.000000 8.618498 0.000000
0.000000 0.000000 8.618498
Co Cr Fe Mn Ni
14 12 12 10 10
direct
0.000000 0.000000 0.000000 Co
0.318786 0.318786 0.318786 Co
0.181213 0.181213 0.818786 Co
0.818786 0.181213 0.181213 Co
0.181213 0.818786 0.181213 Co
0.356204 0.035468 0.356204 Co
0.143796 0.464532 0.856204 Co
0.856204 0.464532 0.143796 Co
0.143796 0.856204 0.464532 Co
0.143796 0.143796 0.535468 Co
0.535468 0.143796 0.143796 Co
0.464532 0.856204 0.143796 Co
0.464532 0.143796 0.856204 Co
0.856204 0.143796 0.464532 Co
0.356204 0.356204 0.035468 Cr
0.035468 0.356204 0.356204 Cr
0.143796 0.535468 0.143796 Cr
0.089059 0.282544 0.089059 Cr
0.910941 0.717456 0.089059 Cr
0.089059 0.717456 0.910941 Cr
0.910941 0.089059 0.717456 Cr
0.410940 0.410940 0.782544 Cr
0.782544 0.410940 0.410940 Cr
0.717456 0.089059 0.910941 Cr
0.717456 0.910941 0.089059 Cr
0.089059 0.910941 0.717456 Cr
0.089059 0.089059 0.282544 Fe
0.282544 0.089059 0.089059 Fe
0.410940 0.782544 0.410940 Fe
0.500000 0.500000 0.500000 Fe
0.818786 0.818786 0.818786 Fe
0.681214 0.681214 0.318786 Fe
0.318786 0.681214 0.681214 Fe
0.681214 0.318786 0.681214 Fe
0.856204 0.535468 0.856204 Fe
0.643796 0.964532 0.356204 Fe
0.356204 0.964532 0.643796 Fe
0.643796 0.356204 0.964532 Fe
0.643796 0.643796 0.035468 Mn
0.035468 0.643796 0.643796 Mn
0.964532 0.356204 0.643796 Mn
0.964532 0.643796 0.356204 Mn
0.356204 0.643796 0.964532 Mn
0.856204 0.856204 0.535468 Mn
0.535468 0.856204 0.856204 Mn
0.643796 0.035468 0.643796 Mn
0.589059 0.782544 0.589059 Mn
0.410940 0.217455 0.589059 Mn
0.589059 0.217455 0.410940 Ni
0.410940 0.589059 0.217455 Ni
0.910941 0.910941 0.282544 Ni
0.282544 0.910941 0.910941 Ni
0.217455 0.589059 0.410940 Ni
0.217455 0.410940 0.589059 Ni
0.589059 0.410940 0.217455 Ni
0.589059 0.589059 0.782544 Ni
0.782544 0.589059 0.589059 Ni
0.910941 0.282544 0.910941 Ni
