Ti24 Al64 Ni28
1.0
11.802472 0.000000 0.000000
0.000000 11.802472 0.000000
0.000000 0.000000 11.802472
Ti Al Ni
24 64 28
direct
0.817606 0.000000 0.000000 Ti
0.182394 0.000000 0.000000 Ti
0.500000 0.317606 0.000000 Ti
0.000000 0.000000 0.817606 Ti
0.500000 0.682394 0.000000 Ti
0.500000 0.000000 0.682394 Ti
0.817606 0.500000 0.500000 Ti
0.182394 0.500000 0.500000 Ti
0.500000 0.817606 0.500000 Ti
0.000000 0.500000 0.317606 Ti
0.500000 0.182394 0.500000 Ti
0.500000 0.500000 0.182394 Ti
0.317606 0.000000 0.500000 Ti
0.682394 0.000000 0.500000 Ti
0.000000 0.317606 0.500000 Ti
0.500000 0.000000 0.317606 Ti
0.000000 0.682394 0.500000 Ti
0.000000 0.000000 0.182394 Ti
0.317606 0.500000 0.000000 Ti
0.682394 0.500000 0.000000 Ti
0.000000 0.817606 0.000000 Ti
0.500000 0.500000 0.817606 Ti
0.000000 0.182394 0.000000 Ti
0.000000 0.500000 0.682394 Ti
0.337926 0.337926 0.837926 Al
0.162074 0.162074 0.837926 Al
0.337926 0.162074 0.662074 Al
0.162074 0.337926 0.662074 Al
0.162074 0.662074 0.662074 Al
0.337926 0.837926 0.662074 Al
0.337926 0.662074 0.837926 Al
0.162074 0.837926 0.837926 Al
0.119065 0.119065 0.619065 Al
0.880935 0.880935 0.619065 Al
0.619065 0.880935 0.880935 Al
0.380935 0.119065 0.880935 Al
0.380935 0.880935 0.880935 Al
0.619065 0.119065 0.880935 Al
0.119065 0.880935 0.619065 Al
0.880935 0.119065 0.619065 Al
0.337926 0.837926 0.337926 Al
0.162074 0.662074 0.337926 Al
0.337926 0.662074 0.162074 Al
0.162074 0.837926 0.162074 Al
0.162074 0.162074 0.162074 Al
0.337926 0.337926 0.162074 Al
0.337926 0.162074 0.337926 Al
0.162074 0.337926 0.337926 Al
0.119065 0.619065 0.119065 Al
0.880935 0.380935 0.119065 Al
0.619065 0.380935 0.380935 Al
0.380935 0.619065 0.380935 Al
0.380935 0.380935 0.380935 Al
0.619065 0.619065 0.380935 Al
0.119065 0.380935 0.119065 Al
0.880935 0.619065 0.119065 Al
0.837926 0.337926 0.337926 Al
0.662074 0.162074 0.337926 Al
0.837926 0.162074 0.162074 Al
0.662074 0.337926 0.162074 Al
0.662074 0.662074 0.162074 Al
0.837926 0.837926 0.162074 Al
0.837926 0.662074 0.337926 Al
0.662074 0.837926 0.337926 Al
0.619065 0.119065 0.119065 Al
0.380935 0.880935 0.119065 Al
0.119065 0.880935 0.380935 Al
0.880935 0.119065 0.380935 Al
0.880935 0.880935 0.380935 Al
0.119065 0.119065 0.380935 Al
0.619065 0.880935 0.119065 Al
0.380935 0.119065 0.119065 Al
0.837926 0.837926 0.837926 Al
0.662074 0.662074 0.837926 Al
0.837926 0.662074 0.662074 Al
0.662074 0.837926 0.662074 Al
0.662074 0.162074 0.662074 Al
0.837926 0.337926 0.662074 Al
0.837926 0.162074 0.837926 Al
0.662074 0.337926 0.837926 Al
0.619065 0.619065 0.619065 Al
0.380935 0.380935 0.619065 Al
0.119065 0.380935 0.880935 Al
0.880935 0.619065 0.880935 Al
0.880935 0.380935 0.880935 Al
0.119065 0.619065 0.880935 Al
0.619065 0.380935 0.619065 Al
0.380935 0.619065 0.619065 Al
0.000000 0.250000 0.750000 Ni
0.000000 0.750000 0.750000 Ni
0.250000 0.000000 0.750000 Ni
0.250000 0.750000 0.000000 Ni
0.750000 0.000000 0.750000 Ni
0.250000 0.250000 0.000000 Ni
0.500000 0.000000 0.000000 Ni
0.000000 0.750000 0.250000 Ni
0.000000 0.250000 0.250000 Ni
0.250000 0.500000 0.250000 Ni
0.250000 0.250000 0.500000 Ni
0.750000 0.500000 0.250000 Ni
0.250000 0.750000 0.500000 Ni
0.500000 0.500000 0.500000 Ni
0.500000 0.250000 0.250000 Ni
0.500000 0.750000 0.250000 Ni
0.750000 0.000000 0.250000 Ni
0.750000 0.750000 0.500000 Ni
0.250000 0.000000 0.250000 Ni
0.750000 0.250000 0.500000 Ni
0.000000 0.000000 0.500000 Ni
0.500000 0.750000 0.750000 Ni
0.500000 0.250000 0.750000 Ni
0.750000 0.500000 0.750000 Ni
0.750000 0.250000 0.000000 Ni
0.250000 0.500000 0.750000 Ni
0.750000 0.750000 0.000000 Ni
0.000000 0.500000 0.000000 Ni
