Fe4 Ni4 Mo4
1.0
5.578802 0.000000 0.000000
0.000000 5.578802 0.000000
0.000000 0.000000 5.578802
Fe Ni Mo
4 4 4
direct
0.250000 0.250000 0.250000 Fe
0.250000 0.750000 0.750000 Fe
0.750000 0.250000 0.750000 Fe
0.750000 0.750000 0.250000 Fe
0.500000 0.000000 0.000000 Ni
0.500000 0.500000 0.500000 Ni
0.000000 0.000000 0.500000 Ni
0.000000 0.500000 0.000000 Ni
0.000000 0.000000 0.000000 Mo
0.000000 0.500000 0.500000 Mo
0.500000 0.000000 0.500000 Mo
0.500000 0.500000 0.000000 Mo
